column=9;
row=9;
Board=[|0,9,0,0,8,0,0,0,0|0,0,0,0,6,3,9,2,1|0,1,0,0,5,0,7,0,0|0,2,4,0,0,9,0,0,5|0,5,9,0,0,8,0,4,0|0,0,0,0,0,4,8,9,7|0,0,0,0,0,0,3,0,0|0,8,1,0,0,0,5,7,9|0,0,0,0,0,0,0,0,0|];
horizontal=[|0,2,1,1,0,0,0,0|1,0,2,0,0,1,0,2|0,0,1,0,2,0,2,0|2,0,0,0,0,0,0,0|0,1,2,1,0,2,2,0|0,0,0,0,0,1,0,0|0,2,2,2,1,2,0,2|0,0,0,0,0,0,0,0|0,0,0,0,0,0,2,0|];
vertical=[|0,2,0,2,2,0,0,2,0|0,0,0,0,0,0,0,1,0|1,0,0,0,1,0,2,0,0|2,0,0,2,2,2,0,0,0|0,2,2,0,2,2,0,0,0|1,0,2,2,0,1,2,0,0|0,1,0,1,0,0,1,2,1|1,0,0,0,1,0,0,0,0|];
